# 2223
param n := 30;
param s := 1;
set E :=  (0,1) (0,2) (0,21) (0,29) (1,8) (2,12) (2,17) (3,4) (3,12) (3,23) (4,10) (5,6) (5,10) (5,24) (5,26) (6,16) (7,12) (9,13) (10,15) (10,23) (10,25) (11,19) (12,22) (12,28) (13,21) (14,19) (14,25) (14,29) (18,26) (19,20) (21,27);
